Route #1: 19 13 54 52 24 44 23
Route #2: 22 27 28 41 25
Route #3: 29 18 45
Route #4: 12 10 5 11 51 2 33
Route #5: 32 9 49 35
Route #6: 34 17 20 31 42 7
Route #7: 15 38 53 21 8
Route #8: 36 40 16 47 39 43 1 6 48 50 30 4
Route #9: 37 26 3 46 14
cost 1277.1756591796875